p cnf 181 1008
1 -77 0
1 -78 0
77 -77 0
78 -78 0
20 -83 0
20 -84 0
83 -83 0
84 -84 0
39 -89 0
39 -90 0
89 -89 0
90 -90 0
58 -95 0
58 -96 0
95 -95 0
96 -96 0
2 -77 0
2 -78 0
77 -77 0
78 -78 0
21 -83 0
21 -84 0
83 -83 0
84 -84 0
40 -89 0
40 -90 0
89 -89 0
90 -90 0
59 -95 0
59 -96 0
95 -95 0
96 -96 0
3 -77 0
3 -78 0
77 -77 0
78 -78 0
22 -83 0
22 -84 0
83 -83 0
84 -84 0
41 -89 0
41 -90 0
89 -89 0
90 -90 0
60 -95 0
60 -96 0
95 -95 0
96 -96 0
4 -101 -77 0
-4 101 -77 0
4 101 -78 0
-4 -101 -78 0
23 -101 -83 0
-23 101 -83 0
23 101 -84 0
-23 -101 -84 0
42 -101 -89 0
-42 101 -89 0
42 101 -90 0
-42 -101 -90 0
61 -101 -95 0
-61 101 -95 0
61 101 -96 0
-61 -101 -96 0
5 -102 -77 0
-5 102 -77 0
5 102 -78 0
-5 -102 -78 0
24 -102 -83 0
-24 102 -83 0
24 102 -84 0
-24 -102 -84 0
43 -102 -89 0
-43 102 -89 0
43 102 -90 0
-43 -102 -90 0
62 -102 -95 0
-62 102 -95 0
62 102 -96 0
-62 -102 -96 0
6 -77 0
6 -78 0
77 -77 0
78 -78 0
25 -83 0
25 -84 0
83 -83 0
84 -84 0
44 -89 0
44 -90 0
89 -89 0
90 -90 0
63 -95 0
63 -96 0
95 -95 0
96 -96 0
7 -77 0
7 -78 0
77 -77 0
78 -78 0
26 -83 0
26 -84 0
83 -83 0
84 -84 0
45 -89 0
45 -90 0
89 -89 0
90 -90 0
64 -95 0
64 -96 0
95 -95 0
96 -96 0
8 -103 -77 0
-8 103 -77 0
8 103 -78 0
-8 -103 -78 0
27 -103 -83 0
-27 103 -83 0
27 103 -84 0
-27 -103 -84 0
46 -103 -89 0
-46 103 -89 0
46 103 -90 0
-46 -103 -90 0
65 -103 -95 0
-65 103 -95 0
65 103 -96 0
-65 -103 -96 0
9 -104 -77 0
-9 104 -77 0
9 104 -78 0
-9 -104 -78 0
28 -104 -83 0
-28 104 -83 0
28 104 -84 0
-28 -104 -84 0
47 -104 -89 0
-47 104 -89 0
47 104 -90 0
-47 -104 -90 0
66 -104 -95 0
-66 104 -95 0
66 104 -96 0
-66 -104 -96 0
10 -105 -77 0
-10 105 -77 0
10 105 -78 0
-10 -105 -78 0
29 -105 -83 0
-29 105 -83 0
29 105 -84 0
-29 -105 -84 0
48 -105 -89 0
-48 105 -89 0
48 105 -90 0
-48 -105 -90 0
67 -105 -95 0
-67 105 -95 0
67 105 -96 0
-67 -105 -96 0
11 -77 0
11 -78 0
77 -77 0
78 -78 0
30 -83 0
30 -84 0
83 -83 0
84 -84 0
49 -89 0
49 -90 0
89 -89 0
90 -90 0
68 -95 0
68 -96 0
95 -95 0
96 -96 0
12 -77 0
12 -78 0
77 -77 0
78 -78 0
31 -83 0
31 -84 0
83 -83 0
84 -84 0
50 -89 0
50 -90 0
89 -89 0
90 -90 0
69 -95 0
69 -96 0
95 -95 0
96 -96 0
13 -77 0
13 -78 0
77 -77 0
78 -78 0
32 -83 0
32 -84 0
83 -83 0
84 -84 0
51 -89 0
51 -90 0
89 -89 0
90 -90 0
70 -95 0
70 -96 0
95 -95 0
96 -96 0
14 -77 0
14 -78 0
77 -77 0
78 -78 0
33 -83 0
33 -84 0
83 -83 0
84 -84 0
52 -89 0
52 -90 0
89 -89 0
90 -90 0
71 -95 0
71 -96 0
95 -95 0
96 -96 0
15 -106 -77 0
-15 106 -77 0
15 106 -78 0
-15 -106 -78 0
34 -106 -83 0
-34 106 -83 0
34 106 -84 0
-34 -106 -84 0
53 -106 -89 0
-53 106 -89 0
53 106 -90 0
-53 -106 -90 0
72 -106 -95 0
-72 106 -95 0
72 106 -96 0
-72 -106 -96 0
16 -77 0
16 -78 0
77 -77 0
78 -78 0
35 -83 0
35 -84 0
83 -83 0
84 -84 0
54 -89 0
54 -90 0
89 -89 0
90 -90 0
73 -95 0
73 -96 0
95 -95 0
96 -96 0
17 -77 0
17 -78 0
77 -77 0
78 -78 0
36 -83 0
36 -84 0
83 -83 0
84 -84 0
55 -89 0
55 -90 0
89 -89 0
90 -90 0
74 -95 0
74 -96 0
95 -95 0
96 -96 0
-18 -77 0
-18 -78 0
77 -77 0
78 -78 0
-37 -83 0
-37 -84 0
83 -83 0
84 -84 0
-56 -89 0
-56 -90 0
89 -89 0
90 -90 0
-75 -95 0
-75 -96 0
95 -95 0
96 -96 0
-19 -77 0
-19 -78 0
77 -77 0
78 -78 0
-38 -83 0
-38 -84 0
83 -83 0
84 -84 0
-57 -89 0
-57 -90 0
89 -89 0
90 -90 0
-76 -95 0
-76 -96 0
95 -95 0
96 -96 0
-158 77 0
158 -77 0
-159 78 0
158 -78 0
-158 -77 0
-159 -78 0
-164 77 158 0
164 -77 0
164 -158 0
-165 78 159 0
165 -78 0
165 -159 0
-164 -83 0
-165 -84 0
-170 83 164 0
170 -83 0
170 -164 0
-171 84 165 0
171 -84 0
171 -165 0
-170 -89 0
-171 -90 0
-176 89 170 0
176 -89 0
176 -170 0
-177 90 171 0
177 -90 0
177 -171 0
-176 -95 0
-177 -96 0
176 0
177 0
1 -79 0
1 -80 0
79 -79 0
80 -80 0
20 -85 0
20 -86 0
85 -85 0
86 -86 0
39 -91 0
39 -92 0
91 -91 0
92 -92 0
58 -97 0
58 -98 0
97 -97 0
98 -98 0
2 -79 0
2 -80 0
79 -79 0
80 -80 0
21 -85 0
21 -86 0
85 -85 0
86 -86 0
40 -91 0
40 -92 0
91 -91 0
92 -92 0
59 -97 0
59 -98 0
97 -97 0
98 -98 0
3 -79 0
3 -80 0
79 -79 0
80 -80 0
22 -85 0
22 -86 0
85 -85 0
86 -86 0
41 -91 0
41 -92 0
91 -91 0
92 -92 0
60 -97 0
60 -98 0
97 -97 0
98 -98 0
4 -107 -79 0
-4 107 -79 0
4 107 -80 0
-4 -107 -80 0
23 -107 -85 0
-23 107 -85 0
23 107 -86 0
-23 -107 -86 0
42 -107 -91 0
-42 107 -91 0
42 107 -92 0
-42 -107 -92 0
61 -107 -97 0
-61 107 -97 0
61 107 -98 0
-61 -107 -98 0
5 -108 -79 0
-5 108 -79 0
5 108 -80 0
-5 -108 -80 0
24 -108 -85 0
-24 108 -85 0
24 108 -86 0
-24 -108 -86 0
43 -108 -91 0
-43 108 -91 0
43 108 -92 0
-43 -108 -92 0
62 -108 -97 0
-62 108 -97 0
62 108 -98 0
-62 -108 -98 0
6 -79 0
6 -80 0
79 -79 0
80 -80 0
25 -85 0
25 -86 0
85 -85 0
86 -86 0
44 -91 0
44 -92 0
91 -91 0
92 -92 0
63 -97 0
63 -98 0
97 -97 0
98 -98 0
7 -79 0
7 -80 0
79 -79 0
80 -80 0
26 -85 0
26 -86 0
85 -85 0
86 -86 0
45 -91 0
45 -92 0
91 -91 0
92 -92 0
64 -97 0
64 -98 0
97 -97 0
98 -98 0
8 -109 -79 0
-8 109 -79 0
8 109 -80 0
-8 -109 -80 0
27 -109 -85 0
-27 109 -85 0
27 109 -86 0
-27 -109 -86 0
46 -109 -91 0
-46 109 -91 0
46 109 -92 0
-46 -109 -92 0
65 -109 -97 0
-65 109 -97 0
65 109 -98 0
-65 -109 -98 0
9 -110 -79 0
-9 110 -79 0
9 110 -80 0
-9 -110 -80 0
28 -110 -85 0
-28 110 -85 0
28 110 -86 0
-28 -110 -86 0
47 -110 -91 0
-47 110 -91 0
47 110 -92 0
-47 -110 -92 0
66 -110 -97 0
-66 110 -97 0
66 110 -98 0
-66 -110 -98 0
10 -111 -79 0
-10 111 -79 0
10 111 -80 0
-10 -111 -80 0
29 -111 -85 0
-29 111 -85 0
29 111 -86 0
-29 -111 -86 0
48 -111 -91 0
-48 111 -91 0
48 111 -92 0
-48 -111 -92 0
67 -111 -97 0
-67 111 -97 0
67 111 -98 0
-67 -111 -98 0
11 -79 0
11 -80 0
79 -79 0
80 -80 0
30 -85 0
30 -86 0
85 -85 0
86 -86 0
49 -91 0
49 -92 0
91 -91 0
92 -92 0
68 -97 0
68 -98 0
97 -97 0
98 -98 0
12 -79 0
12 -80 0
79 -79 0
80 -80 0
31 -85 0
31 -86 0
85 -85 0
86 -86 0
50 -91 0
50 -92 0
91 -91 0
92 -92 0
69 -97 0
69 -98 0
97 -97 0
98 -98 0
13 -79 0
13 -80 0
79 -79 0
80 -80 0
32 -85 0
32 -86 0
85 -85 0
86 -86 0
51 -91 0
51 -92 0
91 -91 0
92 -92 0
70 -97 0
70 -98 0
97 -97 0
98 -98 0
14 -79 0
14 -80 0
79 -79 0
80 -80 0
33 -85 0
33 -86 0
85 -85 0
86 -86 0
52 -91 0
52 -92 0
91 -91 0
92 -92 0
71 -97 0
71 -98 0
97 -97 0
98 -98 0
15 -112 -79 0
-15 112 -79 0
15 112 -80 0
-15 -112 -80 0
34 -112 -85 0
-34 112 -85 0
34 112 -86 0
-34 -112 -86 0
53 -112 -91 0
-53 112 -91 0
53 112 -92 0
-53 -112 -92 0
72 -112 -97 0
-72 112 -97 0
72 112 -98 0
-72 -112 -98 0
16 -79 0
16 -80 0
79 -79 0
80 -80 0
35 -85 0
35 -86 0
85 -85 0
86 -86 0
54 -91 0
54 -92 0
91 -91 0
92 -92 0
73 -97 0
73 -98 0
97 -97 0
98 -98 0
17 -79 0
17 -80 0
79 -79 0
80 -80 0
36 -85 0
36 -86 0
85 -85 0
86 -86 0
55 -91 0
55 -92 0
91 -91 0
92 -92 0
74 -97 0
74 -98 0
97 -97 0
98 -98 0
18 -113 -79 0
-18 113 -79 0
18 113 -80 0
-18 -113 -80 0
37 -113 -85 0
-37 113 -85 0
37 113 -86 0
-37 -113 -86 0
56 -113 -91 0
-56 113 -91 0
56 113 -92 0
-56 -113 -92 0
75 -113 -97 0
-75 113 -97 0
75 113 -98 0
-75 -113 -98 0
19 -114 -79 0
-19 114 -79 0
19 114 -80 0
-19 -114 -80 0
38 -114 -85 0
-38 114 -85 0
38 114 -86 0
-38 -114 -86 0
57 -114 -91 0
-57 114 -91 0
57 114 -92 0
-57 -114 -92 0
76 -114 -97 0
-76 114 -97 0
76 114 -98 0
-76 -114 -98 0
-160 79 0
160 -79 0
-161 80 0
160 -80 0
-160 -79 0
-161 -80 0
-166 79 160 0
166 -79 0
166 -160 0
-167 80 161 0
167 -80 0
167 -161 0
-166 -85 0
-167 -86 0
-172 85 166 0
172 -85 0
172 -166 0
-173 86 167 0
173 -86 0
173 -167 0
-172 -91 0
-173 -92 0
-178 91 172 0
178 -91 0
178 -172 0
-179 92 173 0
179 -92 0
179 -173 0
-178 -97 0
-179 -98 0
178 0
179 0
1 -81 0
1 -82 0
81 -81 0
82 -82 0
20 -87 0
20 -88 0
87 -87 0
88 -88 0
39 -93 0
39 -94 0
93 -93 0
94 -94 0
58 -99 0
58 -100 0
99 -99 0
100 -100 0
2 -81 0
2 -82 0
81 -81 0
82 -82 0
21 -87 0
21 -88 0
87 -87 0
88 -88 0
40 -93 0
40 -94 0
93 -93 0
94 -94 0
59 -99 0
59 -100 0
99 -99 0
100 -100 0
3 -81 0
3 -82 0
81 -81 0
82 -82 0
22 -87 0
22 -88 0
87 -87 0
88 -88 0
41 -93 0
41 -94 0
93 -93 0
94 -94 0
60 -99 0
60 -100 0
99 -99 0
100 -100 0
4 -115 -81 0
-4 115 -81 0
4 115 -82 0
-4 -115 -82 0
23 -115 -87 0
-23 115 -87 0
23 115 -88 0
-23 -115 -88 0
42 -115 -93 0
-42 115 -93 0
42 115 -94 0
-42 -115 -94 0
61 -115 -99 0
-61 115 -99 0
61 115 -100 0
-61 -115 -100 0
-5 -81 0
-5 -82 0
81 -81 0
82 -82 0
-24 -87 0
-24 -88 0
87 -87 0
88 -88 0
-43 -93 0
-43 -94 0
93 -93 0
94 -94 0
-62 -99 0
-62 -100 0
99 -99 0
100 -100 0
6 -81 0
6 -82 0
81 -81 0
82 -82 0
25 -87 0
25 -88 0
87 -87 0
88 -88 0
44 -93 0
44 -94 0
93 -93 0
94 -94 0
63 -99 0
63 -100 0
99 -99 0
100 -100 0
7 -116 -81 0
-7 116 -81 0
7 116 -82 0
-7 -116 -82 0
26 -116 -87 0
-26 116 -87 0
26 116 -88 0
-26 -116 -88 0
45 -116 -93 0
-45 116 -93 0
45 116 -94 0
-45 -116 -94 0
64 -116 -99 0
-64 116 -99 0
64 116 -100 0
-64 -116 -100 0
8 -81 0
8 -82 0
81 -81 0
82 -82 0
27 -87 0
27 -88 0
87 -87 0
88 -88 0
46 -93 0
46 -94 0
93 -93 0
94 -94 0
65 -99 0
65 -100 0
99 -99 0
100 -100 0
-9 -81 0
-9 -82 0
81 -81 0
82 -82 0
-28 -87 0
-28 -88 0
87 -87 0
88 -88 0
-47 -93 0
-47 -94 0
93 -93 0
94 -94 0
-66 -99 0
-66 -100 0
99 -99 0
100 -100 0
10 -81 0
10 -82 0
81 -81 0
82 -82 0
29 -87 0
29 -88 0
87 -87 0
88 -88 0
48 -93 0
48 -94 0
93 -93 0
94 -94 0
67 -99 0
67 -100 0
99 -99 0
100 -100 0
11 -81 0
11 -82 0
81 -81 0
82 -82 0
30 -87 0
30 -88 0
87 -87 0
88 -88 0
49 -93 0
49 -94 0
93 -93 0
94 -94 0
68 -99 0
68 -100 0
99 -99 0
100 -100 0
12 -81 0
12 -82 0
81 -81 0
82 -82 0
31 -87 0
31 -88 0
87 -87 0
88 -88 0
50 -93 0
50 -94 0
93 -93 0
94 -94 0
69 -99 0
69 -100 0
99 -99 0
100 -100 0
13 -81 0
13 -82 0
81 -81 0
82 -82 0
32 -87 0
32 -88 0
87 -87 0
88 -88 0
51 -93 0
51 -94 0
93 -93 0
94 -94 0
70 -99 0
70 -100 0
99 -99 0
100 -100 0
14 -117 -81 0
-14 117 -81 0
14 117 -82 0
-14 -117 -82 0
33 -117 -87 0
-33 117 -87 0
33 117 -88 0
-33 -117 -88 0
52 -117 -93 0
-52 117 -93 0
52 117 -94 0
-52 -117 -94 0
71 -117 -99 0
-71 117 -99 0
71 117 -100 0
-71 -117 -100 0
15 -81 0
15 -82 0
81 -81 0
82 -82 0
34 -87 0
34 -88 0
87 -87 0
88 -88 0
53 -93 0
53 -94 0
93 -93 0
94 -94 0
72 -99 0
72 -100 0
99 -99 0
100 -100 0
16 -81 0
16 -82 0
81 -81 0
82 -82 0
35 -87 0
35 -88 0
87 -87 0
88 -88 0
54 -93 0
54 -94 0
93 -93 0
94 -94 0
73 -99 0
73 -100 0
99 -99 0
100 -100 0
17 -118 -81 0
-17 118 -81 0
17 118 -82 0
-17 -118 -82 0
36 -118 -87 0
-36 118 -87 0
36 118 -88 0
-36 -118 -88 0
55 -118 -93 0
-55 118 -93 0
55 118 -94 0
-55 -118 -94 0
74 -118 -99 0
-74 118 -99 0
74 118 -100 0
-74 -118 -100 0
18 -119 -81 0
-18 119 -81 0
18 119 -82 0
-18 -119 -82 0
37 -119 -87 0
-37 119 -87 0
37 119 -88 0
-37 -119 -88 0
56 -119 -93 0
-56 119 -93 0
56 119 -94 0
-56 -119 -94 0
75 -119 -99 0
-75 119 -99 0
75 119 -100 0
-75 -119 -100 0
19 -120 -81 0
-19 120 -81 0
19 120 -82 0
-19 -120 -82 0
38 -120 -87 0
-38 120 -87 0
38 120 -88 0
-38 -120 -88 0
57 -120 -93 0
-57 120 -93 0
57 120 -94 0
-57 -120 -94 0
76 -120 -99 0
-76 120 -99 0
76 120 -100 0
-76 -120 -100 0
-162 81 0
162 -81 0
-163 82 0
162 -82 0
-162 -81 0
-163 -82 0
-168 81 162 0
168 -81 0
168 -162 0
-169 82 163 0
169 -82 0
169 -163 0
-168 -87 0
-169 -88 0
-174 87 168 0
174 -87 0
174 -168 0
-175 88 169 0
175 -88 0
175 -169 0
-174 -93 0
-175 -94 0
-180 93 174 0
180 -93 0
180 -174 0
-181 94 175 0
181 -94 0
181 -175 0
-180 -99 0
-181 -100 0
180 0
181 0
